% demand
num_movements = 20;
loading_factor = [1900, 950, 950, 1050, 1400, 1500, 800, 1850, 1550, 1700, 1600, 1500, 1800, 1700, 850, 1100, 1400, 900, 1100, 1000];
pickup_time = [0, 0, 0, 0, 0, 0, 0, 0, 1, 1, 2, 2, 2, 2, 3, 3, 3, 3, 3, 5];
delivery_time = [6, 2, 1, 2, 1, 1, 2, 2, 2, 6, 3, 3, 3, 6, 5, 6, 6, 5, 6, 6];

% transporter definition
total_capacity = 11000;
num_decks = 4;
capacity = [3000, 3000, 1000, 4000];

% ways out of decks
num_ways_out = 2;
paths_out = array3d(decks, ways_out, decks, [
% ways out of deck d1
2, 4, 0, 0, 3, 4, 0, 0, 

% ways out of deck d2
4, 0, 0, 0, 0, 0, 0, 0,	

% ways out of deck d3
4, 0, 0, 0, 0, 0, 0, 0,	

% ways out of deck d4
0, 0, 0, 0,	0, 0, 0, 0,	

]);

